(declare-fun v7 () (_ BitVec 15))
(declare-fun v16 () (_ BitVec 15))
(declare-fun v21 () (_ BitVec 8))
(declare-fun a69 () (Array (_ BitVec 15) (_ BitVec 14)))
(assert
(let (($e1 (_ bv0 1)))
(let (($e16 (_ bv0 14)))
(let (($e18 (_ bv0 7)))
(let (($e19 (_ bv1 1)))
(let (($e75 (concat $e18 v21)))
(let (($e76 (bvand $e75 v7)))
(let (($e117        a69             ))
(let (($e118        $e117             ))
(let (($e340        $e118             ))
(let (($e341        $e340             ))
(let (($e578                    $e19     ))
(let (($e579 (concat $e16 $e578)))
(let (($e580 (select $e341 $e579)))
(let (($e581 (concat $e1 $e580)))
(let (($e582 (bvand $e581 $e76)))
(let (($e1236 (   extract      v16)))
(let (($e1237              $e1236          ))
(let (($e1238             $e1237 ))
              (ite        $e1238  $e76 $e582)
                                                                                                                                                                                                                                                                                                                                                                                                                                                                                                                                                                                                                                                                                                                                                                                                                                                                                                                                                                                                                                                                                                                                                                                                                                                                                                                                                                                                                                                                                                                                                                                                                                                                                                                                                                                                                                                                                                                                                                                                                                                                                                                                                                                                                                                                                                                                                                                                                                                                                                                                                                                                                                                                                                                                                                                                                                                                                                                                                                                                                                                                                                                                                                                                                                                                                                                                    )))                                                                                                                                                                                                                                                                                                                                                                                                                                                                                                                                                                                                                                                                             )))))                                                                                                                                                                                                                                            ))                                                                                                                                                                                                                             ))                                        ))                               )) )              ))
